c b=12,c=513
p cnf 34 418
1 2 3 12 -24 0
1 2 12 -33 0
1 2 3 -12 24 0
1 2 3 -12 33 0
1 2 11 -23 0
1 3 11 -32 0
1 2 -11 23 0
1 2 3 -11 32 0
1 10 -22 0
2 3 10 -31 0
1 -10 22 0
1 2 3 -10 31 0
9 -21 0
1 2 3 9 -30 0
-9 21 0
1 2 3 -9 30 0
8 -20 0
1 2 3 8 -29 0
-8 20 0
1 2 3 -8 29 0
7 -19 0
1 2 3 7 -28 0
-7 19 0
1 2 3 -7 28 0
6 -18 0
1 2 3 6 -27 0
-6 18 0
1 2 3 -6 27 0
5 -17 0
1 2 3 5 -26 0
-5 17 0
1 2 3 -5 26 0
4 -16 0
1 2 3 4 -25 0
-4 16 0
1 2 3 -4 25 0
3 -15 0
1 2 3 -34 0
1 2 -3 12 24 0
1 2 4 12 -25 0
1 2 -3 -12 -24 0
-3 4 -12 25 0
4 -12 33 0
4 11 -32 0
4 -11 32 0
4 10 -31 0
4 -10 31 0
4 9 -30 0
4 -9 30 0
4 8 -29 0
4 -8 29 0
4 7 -28 0
4 -7 28 0
4 6 -27 0
4 -6 27 0
4 5 -26 0
4 -5 26 0
4 -34 0
1 2 -4 12 25 0
1 2 5 12 -26 0
-3 -4 -12 -25 0
-3 -4 5 -12 26 0
5 -12 33 0
5 11 -32 0
5 -11 32 0
5 10 -31 0
5 -10 31 0
5 9 -30 0
5 -9 30 0
5 8 -29 0
5 -8 29 0
5 7 -28 0
5 -7 28 0
5 6 -27 0
5 -6 27 0
5 -34 0
1 2 -5 12 26 0
1 2 6 12 -27 0
-3 -4 -5 -12 -26 0
-3 -4 -5 6 -12 27 0
6 -12 33 0
6 11 -32 0
6 -11 32 0
6 10 -31 0
6 -10 31 0
6 9 -30 0
6 -9 30 0
6 8 -29 0
6 -8 29 0
6 7 -28 0
6 -7 28 0
6 -34 0
1 2 -6 12 27 0
1 2 7 12 -28 0
-3 -4 -5 -6 -12 -27 0
-3 -4 -5 -6 7 -12 28 0
7 -12 33 0
7 11 -32 0
7 -11 32 0
7 10 -31 0
7 -10 31 0
7 9 -30 0
7 -9 30 0
7 8 -29 0
7 -8 29 0
7 -34 0
1 2 -7 12 28 0
1 2 8 12 -29 0
-3 -4 -5 -6 -7 -12 -28 0
-3 -4 -5 -6 -7 8 -12 29 0
8 -12 33 0
8 11 -32 0
8 -11 32 0
8 10 -31 0
8 -10 31 0
8 9 -30 0
8 -9 30 0
8 -34 0
1 2 -8 12 29 0
1 2 9 12 -30 0
-3 -4 -5 -6 -7 -8 -12 -29 0
-3 -4 -5 -6 -7 -8 9 -12 30 0
9 -12 33 0
9 11 -32 0
9 -11 32 0
9 10 -31 0
9 -10 31 0
9 -34 0
1 2 -9 12 30 0
2 10 12 -31 0
-3 -4 -5 -6 -7 -8 -9 -12 -30 0
-3 -4 -5 -6 -7 -8 -9 10 -12 31 0
10 -12 33 0
10 11 -32 0
10 -11 32 0
10 -34 0
1 2 -10 12 31 0
1 2 11 12 -32 0
-3 -4 -5 -6 -7 -8 -9 -10 -12 -31 0
-3 -4 -5 -6 -7 -8 -9 -10 11 -12 32 0
11 -12 33 0
11 -34 0
1 2 -11 12 32 0
12 -34 0
-3 -4 -5 -6 -7 -8 -9 -10 -11 -12 -32 0
-3 -4 -5 -6 -7 -8 -9 -10 -11 -12 34 0
1 2 -3 -4 -5 -6 -7 -8 -9 -10 -11 -33 0
-3 15 0
2 -14 0
1 3 11 12 -24 0
3 12 -33 0
1 3 11 -12 24 0
1 -2 11 23 0
1 3 4 11 -25 0
-2 3 -11 12 24 0
3 4 12 -25 0
-2 3 -11 -12 -24 0
-2 4 -11 -12 25 0
1 -2 -11 -23 0
1 3 -4 11 25 0
1 3 5 11 -26 0
3 -4 12 25 0
3 5 12 -26 0
-2 -4 -11 -12 -25 0
-2 -4 5 -11 -12 26 0
1 3 -5 11 26 0
1 3 6 11 -27 0
3 -5 12 26 0
3 6 12 -27 0
-2 -4 -5 -11 -12 -26 0
-2 -4 -5 6 -11 -12 27 0
1 3 -6 11 27 0
1 3 7 11 -28 0
3 -6 12 27 0
3 7 12 -28 0
-2 -4 -5 -6 -11 -12 -27 0
-2 -4 -5 -6 7 -11 -12 28 0
1 3 -7 11 28 0
1 3 8 11 -29 0
3 -7 12 28 0
3 8 12 -29 0
-2 -4 -5 -6 -7 -11 -12 -28 0
-2 -4 -5 -6 -7 8 -11 -12 29 0
1 3 -8 11 29 0
1 3 9 11 -30 0
3 -8 12 29 0
3 9 12 -30 0
-2 -4 -5 -6 -7 -8 -11 -12 -29 0
-2 -4 -5 -6 -7 -8 9 -11 -12 30 0
1 3 -9 11 30 0
3 10 11 -31 0
3 -9 12 30 0
3 10 12 -31 0
-2 -4 -5 -6 -7 -8 -9 -11 -12 -30 0
-2 -4 -5 -6 -7 -8 -9 10 -11 -12 31 0
1 3 -10 11 31 0
3 -10 12 31 0
3 -11 12 32 0
-2 -4 -5 -6 -7 -8 -9 -10 -11 -12 -31 0
1 -2 3 -4 -5 -6 -7 -8 -9 -10 -12 -32 0
-2 -4 -5 -6 -7 -8 -9 -10 -11 -12 34 0
-2 3 -4 -5 -6 -7 -8 -9 -10 -11 -33 0
1 -3 11 12 24 0
1 4 11 12 -25 0
4 12 -33 0
1 -3 11 -12 -24 0
-2 -3 -11 12 -24 0
-2 -3 -11 -12 24 0
-2 -3 4 -11 25 0
1 -4 11 12 25 0
1 5 11 12 -26 0
5 12 -33 0
-2 -3 -4 -11 -25 0
-2 -3 -4 5 -11 26 0
1 -5 11 12 26 0
1 6 11 12 -27 0
6 12 -33 0
-2 -3 -4 -5 -11 -26 0
-2 -3 -4 -5 6 -11 27 0
1 -6 11 12 27 0
1 7 11 12 -28 0
7 12 -33 0
-2 -3 -4 -5 -6 -11 -27 0
-2 -3 -4 -5 -6 7 -11 28 0
1 -7 11 12 28 0
1 8 11 12 -29 0
8 12 -33 0
-2 -3 -4 -5 -6 -7 -11 -28 0
-2 -3 -4 -5 -6 -7 8 -11 29 0
1 -8 11 12 29 0
1 9 11 12 -30 0
9 12 -33 0
-2 -3 -4 -5 -6 -7 -8 -11 -29 0
-2 -3 -4 -5 -6 -7 -8 9 -11 30 0
1 -9 11 12 30 0
1 10 11 12 -31 0
10 12 -33 0
-2 -3 -4 -5 -6 -7 -8 -9 -11 -30 0
-2 -3 -4 -5 -6 -7 -8 -9 10 -11 31 0
1 -10 11 12 31 0
1 -2 -3 -4 -5 -6 -7 -8 -9 -10 12 -32 0
11 12 -33 0
-2 -3 -4 -5 -6 -7 -8 -9 -10 -11 12 33 0
-2 -4 -5 -6 -7 -8 -9 -10 -11 -12 -33 0
-2 -3 -4 -5 -6 -7 -8 -9 -10 -11 -31 0
-2 -3 -4 -5 -6 -7 -8 -9 -10 -11 -32 0
-2 14 0
1 -13 0
2 3 10 12 -24 0
2 3 10 -12 24 0
2 10 11 -23 0
2 3 11 -32 0
2 10 -11 23 0
-1 10 22 0
2 3 4 10 -25 0
2 3 11 12 -24 0
2 3 11 -12 24 0
-1 2 -10 11 23 0
2 3 4 11 -25 0
-1 3 -10 -11 12 24 0
-1 3 -10 -11 -12 -24 0
-1 4 -10 -11 -12 25 0
-1 2 -10 -11 -23 0
-1 -10 -22 0
2 3 -4 10 25 0
2 3 5 10 -26 0
2 3 -4 11 25 0
2 3 5 11 -26 0
-1 -4 -10 -11 -12 -25 0
-1 -4 5 -10 -11 -12 26 0
2 3 -5 10 26 0
2 3 6 10 -27 0
2 3 -5 11 26 0
2 3 6 11 -27 0
-1 -4 -5 -10 -11 -12 -26 0
-1 -4 -5 6 -10 -11 -12 27 0
2 3 -6 10 27 0
2 3 7 10 -28 0
2 3 -6 11 27 0
2 3 7 11 -28 0
-1 -4 -5 -6 -10 -11 -12 -27 0
-1 -4 -5 -6 7 -10 -11 -12 28 0
2 3 -7 10 28 0
2 3 8 10 -29 0
2 3 -7 11 28 0
2 3 8 11 -29 0
-1 -4 -5 -6 -7 -10 -11 -12 -28 0
-1 -4 -5 -6 -7 8 -10 -11 -12 29 0
2 3 -8 10 29 0
2 3 9 10 -30 0
2 3 -8 11 29 0
2 3 9 11 -30 0
-1 -4 -5 -6 -7 -8 -10 -11 -12 -29 0
-1 -4 -5 -6 -7 -8 9 -10 -11 -12 30 0
2 3 -9 10 30 0
2 3 -9 11 30 0
2 3 -10 11 31 0
-1 -4 -5 -6 -7 -8 -9 -10 -11 -12 -30 0
-1 2 3 -4 -5 -6 -7 -8 -9 -11 -12 -31 0
-1 2 3 -4 -5 -6 -7 -8 -9 -10 -12 -32 0
-1 -4 -5 -6 -7 -8 -9 -10 -11 -12 34 0
-1 3 -4 -5 -6 -7 -8 -9 -10 -11 -33 0
2 -3 10 12 24 0
2 4 10 12 -25 0
2 -3 10 -12 -24 0
2 -3 11 12 24 0
2 4 11 12 -25 0
2 -3 11 -12 -24 0
-1 -3 -10 -11 12 -24 0
-1 -3 -10 -11 -12 24 0
-1 -3 4 -10 -11 25 0
2 -4 10 12 25 0
2 5 10 12 -26 0
2 -4 11 12 25 0
2 5 11 12 -26 0
-1 -3 -4 -10 -11 -25 0
-1 -3 -4 5 -10 -11 26 0
2 -5 10 12 26 0
2 6 10 12 -27 0
2 -5 11 12 26 0
2 6 11 12 -27 0
-1 -3 -4 -5 -10 -11 -26 0
-1 -3 -4 -5 6 -10 -11 27 0
2 -6 10 12 27 0
2 7 10 12 -28 0
2 -6 11 12 27 0
2 7 11 12 -28 0
-1 -3 -4 -5 -6 -10 -11 -27 0
-1 -3 -4 -5 -6 7 -10 -11 28 0
2 -7 10 12 28 0
2 8 10 12 -29 0
2 -7 11 12 28 0
2 8 11 12 -29 0
-1 -3 -4 -5 -6 -7 -10 -11 -28 0
-1 -3 -4 -5 -6 -7 8 -10 -11 29 0
2 -8 10 12 29 0
2 9 10 12 -30 0
2 -8 11 12 29 0
2 9 11 12 -30 0
-1 -3 -4 -5 -6 -7 -8 -10 -11 -29 0
-1 -3 -4 -5 -6 -7 -8 9 -10 -11 30 0
2 -9 10 12 30 0
2 -9 11 12 30 0
2 -10 11 12 31 0
-1 2 -3 -4 -5 -6 -7 -8 -9 -10 12 -32 0
-1 -3 -4 -5 -6 -7 -8 -9 -10 -11 12 33 0
-1 -4 -5 -6 -7 -8 -9 -10 -11 -12 -33 0
-1 -3 -4 -5 -6 -7 -8 -9 -10 -11 -30 0
-1 -3 -4 -5 -6 -7 -8 -9 -10 -11 -31 0
-1 -3 -4 -5 -6 -7 -8 -9 -10 -11 -32 0
3 10 11 12 -24 0
3 10 11 -12 24 0
-2 10 11 23 0
3 4 10 11 -25 0
-2 10 -11 -23 0
-1 -2 3 -10 12 24 0
-1 -2 3 -10 -12 -24 0
-1 -2 4 -10 -12 25 0
-1 -2 -10 11 -23 0
-1 -2 -10 -11 23 0
3 -4 10 11 25 0
3 5 10 11 -26 0
-1 -2 -4 -10 -12 -25 0
-1 -2 -4 5 -10 -12 26 0
3 -5 10 11 26 0
3 6 10 11 -27 0
-1 -2 -4 -5 -10 -12 -26 0
-1 -2 -4 -5 6 -10 -12 27 0
3 -6 10 11 27 0
3 7 10 11 -28 0
-1 -2 -4 -5 -6 -10 -12 -27 0
-1 -2 -4 -5 -6 7 -10 -12 28 0
3 -7 10 11 28 0
3 8 10 11 -29 0
-1 -2 -4 -5 -6 -7 -10 -12 -28 0
-1 -2 -4 -5 -6 -7 8 -10 -12 29 0
3 -8 10 11 29 0
3 9 10 11 -30 0
-1 -2 -4 -5 -6 -7 -8 -10 -12 -29 0
-1 -2 -4 -5 -6 -7 -8 9 -10 -12 30 0
3 -9 10 11 30 0
3 11 12 -32 0
-1 -2 -4 -5 -6 -7 -8 -9 -10 -12 -30 0
-1 -2 -4 -5 -6 -7 -8 -9 -10 -12 -31 0
-1 -2 -4 -5 -6 -7 -8 -9 -10 11 -12 32 0
-1 -2 -4 -5 -6 -7 -8 -9 -10 -11 -12 -32 0
-3 10 11 12 24 0
4 10 11 12 -25 0
-3 10 11 -12 -24 0
-1 -2 -3 -10 12 -24 0
-1 -2 -3 -10 -12 24 0
-1 -2 -3 4 -10 25 0
-4 10 11 12 25 0
5 10 11 12 -26 0
-1 -2 -3 -4 -10 -25 0
-1 -2 -3 -4 5 -10 26 0
-5 10 11 12 26 0
6 10 11 12 -27 0
-1 -2 -3 -4 -5 -10 -26 0
-1 -2 -3 -4 -5 6 -10 27 0
-6 10 11 12 27 0
7 10 11 12 -28 0
-1 -2 -3 -4 -5 -6 -10 -27 0
-1 -2 -3 -4 -5 -6 7 -10 28 0
-7 10 11 12 28 0
8 10 11 12 -29 0
-1 -2 -3 -4 -5 -6 -7 -10 -28 0
-1 -2 -3 -4 -5 -6 -7 8 -10 29 0
-8 10 11 12 29 0
9 10 11 12 -30 0
-1 -2 -3 -4 -5 -6 -7 -8 -10 -29 0
-1 -2 -3 -4 -5 -6 -7 -8 9 -10 30 0
-9 10 11 12 30 0
-1 -2 -3 -4 -5 -6 -7 -8 -9 11 12 -31 0
-1 -2 -3 -4 -5 -6 -7 -8 -9 -10 11 32 0
-1 -2 -3 -4 -5 -6 -7 -8 -9 -10 -30 0
-1 -2 -3 -4 -5 -6 -7 -8 -9 -10 -31 0
-1 13 0
